20J6M/DAT/20J6MULL-3.dat
20 6
49.5748 49.5748
16.0818 16.0818
18.708 18.708
6.6324 6.6324
47.2261 47.2261
12.9806 12.9806
47.7198 47.7198
2.2811 2.2811
27.2065 27.2065
38.2575 38.2575
31.0398 31.0398
21.9081 21.9081
39.5708 39.5708
26.6403 26.6403
9.1798 9.1798
17.867 17.867
13.807 13.807
35.4799 35.4799
26.7086 26.7086
31.8315 31.8315
86.7836