20J6M/SOL/20J6MULL-3.sol
solution status: optimal solution found
objective value:                     86.7835666666666
x#1#2                               0.212023716350512 	(obj:0)
x#1#6                               0.787976283649488 	(obj:0)
x#2#3                                               1 	(obj:0)
x#3#5                                               1 	(obj:0)
x#4#3                                               1 	(obj:0)
x#5#1                               0.732049297598856 	(obj:0)
x#5#2                               0.267950702401144 	(obj:0)
x#6#3                                               1 	(obj:0)
x#7#6                                               1 	(obj:0)
x#8#3                                               1 	(obj:0)
x#9#2                               0.458707784291744 	(obj:0)
x#9#5                               0.541292215708256 	(obj:0)
x#10#1                                              1 	(obj:0)
x#11#4                                              1 	(obj:0)
x#12#1                              0.636944022226179 	(obj:0)
x#12#3                              0.363055977773821 	(obj:0)
x#13#2                              0.487908592531193 	(obj:0)
x#13#4                              0.512091407468807 	(obj:0)
x#14#5                                              1 	(obj:0)
x#15#3                                              1 	(obj:0)
x#16#3                                              1 	(obj:0)
x#17#3                                              1 	(obj:0)
x#18#4                                              1 	(obj:0)
x#19#5                                              1 	(obj:0)
x#20#2                                              1 	(obj:0)
z                                    86.7835666666666 	(obj:1)
